NAME /Users/henri/Research/solvers/instances/idol-instances/robust/collection/spp_dkp_Lefebvre_et_al_2026/shortest_path_9_6/uncertainty_sets/discrete_knapsack
ROWS
 N  OBJ
 L  primal_lower
COLUMNS
    MARKER    'MARKER'                 'INTORG'
    y[0,1]     OBJ        0
    y[0,1]     primal_lower -0.08
    y[0,2]     OBJ        0
    y[0,2]     primal_lower -3.98
    y[0,3]     OBJ        0
    y[0,3]     primal_lower -1.27
    y[0,4]     OBJ        0
    y[0,4]     primal_lower -1.34
    y[0,5]     OBJ        0
    y[0,5]     primal_lower -3.54
    y[0,6]     OBJ        0
    y[0,6]     primal_lower -1.45
    y[0,7]     OBJ        0
    y[0,7]     primal_lower -3.86
    y[0,8]     OBJ        0
    y[0,8]     primal_lower -2
    y[1,0]     OBJ        0
    y[1,0]     primal_lower -2.45
    y[1,2]     OBJ        0
    y[1,2]     primal_lower -1.59
    y[1,3]     OBJ        0
    y[1,3]     primal_lower -0.5
    y[1,4]     OBJ        0
    y[1,4]     primal_lower -0.63
    y[1,6]     OBJ        0
    y[1,6]     primal_lower -1.99
    y[1,7]     OBJ        0
    y[1,7]     primal_lower -3.27
    y[1,8]     OBJ        0
    y[1,8]     primal_lower -2.05
    y[2,0]     OBJ        0
    y[2,0]     primal_lower -2.65
    y[2,1]     OBJ        0
    y[2,1]     primal_lower -1.5
    y[2,3]     OBJ        0
    y[2,3]     primal_lower -2.03
    y[2,4]     OBJ        0
    y[2,4]     primal_lower -0.84
    y[2,5]     OBJ        0
    y[2,5]     primal_lower -1.83
    y[2,6]     OBJ        0
    y[2,6]     primal_lower -0.59
    y[2,7]     OBJ        0
    y[2,7]     primal_lower -0.17
    y[3,0]     OBJ        0
    y[3,0]     primal_lower -0.37
    y[3,1]     OBJ        0
    y[3,1]     primal_lower -0.95
    y[3,2]     OBJ        0
    y[3,2]     primal_lower -2.43
    y[3,5]     OBJ        0
    y[3,5]     primal_lower -2.93
    y[3,7]     OBJ        0
    y[3,7]     primal_lower -2.63
    y[3,8]     OBJ        0
    y[3,8]     primal_lower -2.57
    y[4,0]     OBJ        0
    y[4,0]     primal_lower -1.49
    y[4,1]     OBJ        0
    y[4,1]     primal_lower -1.7
    y[4,2]     OBJ        0
    y[4,2]     primal_lower -1.79
    y[4,6]     OBJ        0
    y[4,6]     primal_lower -3.03
    y[4,7]     OBJ        0
    y[4,7]     primal_lower -0.65
    y[4,8]     OBJ        0
    y[4,8]     primal_lower -3.52
    y[5,0]     OBJ        0
    y[5,0]     primal_lower -0.17
    y[5,2]     OBJ        0
    y[5,2]     primal_lower -2.74
    y[5,3]     OBJ        0
    y[5,3]     primal_lower -0.68
    y[5,7]     OBJ        0
    y[5,7]     primal_lower -3.45
    y[6,0]     OBJ        0
    y[6,0]     primal_lower -1.17
    y[6,1]     OBJ        0
    y[6,1]     primal_lower -3.45
    y[6,2]     OBJ        0
    y[6,2]     primal_lower -1.28
    y[6,4]     OBJ        0
    y[6,4]     primal_lower -2.91
    y[6,7]     OBJ        0
    y[6,7]     primal_lower -4.24
    y[6,8]     OBJ        0
    y[6,8]     primal_lower -4.1
    y[7,0]     OBJ        0
    y[7,0]     primal_lower -0.74
    y[7,1]     OBJ        0
    y[7,1]     primal_lower -1.51
    y[7,2]     OBJ        0
    y[7,2]     primal_lower -0.4
    y[7,3]     OBJ        0
    y[7,3]     primal_lower -3.09
    y[7,4]     OBJ        0
    y[7,4]     primal_lower -3.04
    y[7,5]     OBJ        0
    y[7,5]     primal_lower -4.06
    y[7,6]     OBJ        0
    y[7,6]     primal_lower -1.37
    y[7,8]     OBJ        0
    y[7,8]     primal_lower -0.81
    y[8,0]     OBJ        0
    y[8,0]     primal_lower -0.16
    y[8,1]     OBJ        0
    y[8,1]     primal_lower -1.65
    y[8,3]     OBJ        0
    y[8,3]     primal_lower -4.3
    y[8,4]     OBJ        0
    y[8,4]     primal_lower -2.59
    y[8,6]     OBJ        0
    y[8,6]     primal_lower -3.97
    y[8,7]     OBJ        0
    y[8,7]     primal_lower -2.31
    u[0,1]     OBJ        0
    u[0,1]     primal_lower 51
    u[0,2]     OBJ        0
    u[0,2]     primal_lower 25
    u[0,3]     OBJ        0
    u[0,3]     primal_lower 23
    u[0,4]     OBJ        0
    u[0,4]     primal_lower 10
    u[0,5]     OBJ        0
    u[0,5]     primal_lower 33
    u[0,6]     OBJ        0
    u[0,6]     primal_lower 67
    u[0,7]     OBJ        0
    u[0,7]     primal_lower 78
    u[0,8]     OBJ        0
    u[0,8]     primal_lower 75
    u[1,0]     OBJ        0
    u[1,0]     primal_lower 83
    u[1,2]     OBJ        0
    u[1,2]     primal_lower 33
    u[1,3]     OBJ        0
    u[1,3]     primal_lower 49
    u[1,4]     OBJ        0
    u[1,4]     primal_lower 92
    u[1,6]     OBJ        0
    u[1,6]     primal_lower 36
    u[1,7]     OBJ        0
    u[1,7]     primal_lower 9
    u[1,8]     OBJ        0
    u[1,8]     primal_lower 83
    u[2,0]     OBJ        0
    u[2,0]     primal_lower 63
    u[2,1]     OBJ        0
    u[2,1]     primal_lower 48
    u[2,3]     OBJ        0
    u[2,3]     primal_lower 74
    u[2,4]     OBJ        0
    u[2,4]     primal_lower 13
    u[2,5]     OBJ        0
    u[2,5]     primal_lower 86
    u[2,6]     OBJ        0
    u[2,6]     primal_lower 27
    u[2,7]     OBJ        0
    u[2,7]     primal_lower 42
    u[3,0]     OBJ        0
    u[3,0]     primal_lower 22
    u[3,1]     OBJ        0
    u[3,1]     primal_lower 74
    u[3,2]     OBJ        0
    u[3,2]     primal_lower 83
    u[3,5]     OBJ        0
    u[3,5]     primal_lower 26
    u[3,7]     OBJ        0
    u[3,7]     primal_lower 11
    u[3,8]     OBJ        0
    u[3,8]     primal_lower 21
    u[4,0]     OBJ        0
    u[4,0]     primal_lower 44
    u[4,1]     OBJ        0
    u[4,1]     primal_lower 78
    u[4,2]     OBJ        0
    u[4,2]     primal_lower 8
    u[4,6]     OBJ        0
    u[4,6]     primal_lower 31
    u[4,7]     OBJ        0
    u[4,7]     primal_lower 92
    u[4,8]     OBJ        0
    u[4,8]     primal_lower 89
    u[5,0]     OBJ        0
    u[5,0]     primal_lower 87
    u[5,2]     OBJ        0
    u[5,2]     primal_lower 45
    u[5,3]     OBJ        0
    u[5,3]     primal_lower 92
    u[5,7]     OBJ        0
    u[5,7]     primal_lower 10
    u[6,0]     OBJ        0
    u[6,0]     primal_lower 77
    u[6,1]     OBJ        0
    u[6,1]     primal_lower 21
    u[6,2]     OBJ        0
    u[6,2]     primal_lower 24
    u[6,4]     OBJ        0
    u[6,4]     primal_lower 89
    u[6,7]     OBJ        0
    u[6,7]     primal_lower 59
    u[6,8]     OBJ        0
    u[6,8]     primal_lower 82
    u[7,0]     OBJ        0
    u[7,0]     primal_lower 3
    u[7,1]     OBJ        0
    u[7,1]     primal_lower 71
    u[7,2]     OBJ        0
    u[7,2]     primal_lower 10
    u[7,3]     OBJ        0
    u[7,3]     primal_lower 39
    u[7,4]     OBJ        0
    u[7,4]     primal_lower 76
    u[7,5]     OBJ        0
    u[7,5]     primal_lower 80
    u[7,6]     OBJ        0
    u[7,6]     primal_lower 99
    u[7,8]     OBJ        0
    u[7,8]     primal_lower 18
    u[8,0]     OBJ        0
    u[8,0]     primal_lower 21
    u[8,1]     OBJ        0
    u[8,1]     primal_lower 3
    u[8,3]     OBJ        0
    u[8,3]     primal_lower 55
    u[8,4]     OBJ        0
    u[8,4]     primal_lower 7
    u[8,6]     OBJ        0
    u[8,6]     primal_lower 81
    u[8,7]     OBJ        0
    u[8,7]     primal_lower 25
    MARKER    'MARKER'                 'INTEND'
RHS
    RHS       primal_lower 259
BOUNDS
 LI BND       y[0,1]     0
 UI BND       y[0,1]     1
 LI BND       y[0,2]     0
 UI BND       y[0,2]     1
 LI BND       y[0,3]     0
 UI BND       y[0,3]     1
 LI BND       y[0,4]     0
 UI BND       y[0,4]     1
 LI BND       y[0,5]     0
 UI BND       y[0,5]     1
 LI BND       y[0,6]     0
 UI BND       y[0,6]     1
 LI BND       y[0,7]     0
 UI BND       y[0,7]     1
 LI BND       y[0,8]     0
 UI BND       y[0,8]     1
 LI BND       y[1,0]     0
 UI BND       y[1,0]     1
 LI BND       y[1,2]     0
 UI BND       y[1,2]     1
 LI BND       y[1,3]     0
 UI BND       y[1,3]     1
 LI BND       y[1,4]     0
 UI BND       y[1,4]     1
 LI BND       y[1,6]     0
 UI BND       y[1,6]     1
 LI BND       y[1,7]     0
 UI BND       y[1,7]     1
 LI BND       y[1,8]     0
 UI BND       y[1,8]     1
 LI BND       y[2,0]     0
 UI BND       y[2,0]     1
 LI BND       y[2,1]     0
 UI BND       y[2,1]     1
 LI BND       y[2,3]     0
 UI BND       y[2,3]     1
 LI BND       y[2,4]     0
 UI BND       y[2,4]     1
 LI BND       y[2,5]     0
 UI BND       y[2,5]     1
 LI BND       y[2,6]     0
 UI BND       y[2,6]     1
 LI BND       y[2,7]     0
 UI BND       y[2,7]     1
 LI BND       y[3,0]     0
 UI BND       y[3,0]     1
 LI BND       y[3,1]     0
 UI BND       y[3,1]     1
 LI BND       y[3,2]     0
 UI BND       y[3,2]     1
 LI BND       y[3,5]     0
 UI BND       y[3,5]     1
 LI BND       y[3,7]     0
 UI BND       y[3,7]     1
 LI BND       y[3,8]     0
 UI BND       y[3,8]     1
 LI BND       y[4,0]     0
 UI BND       y[4,0]     1
 LI BND       y[4,1]     0
 UI BND       y[4,1]     1
 LI BND       y[4,2]     0
 UI BND       y[4,2]     1
 LI BND       y[4,6]     0
 UI BND       y[4,6]     1
 LI BND       y[4,7]     0
 UI BND       y[4,7]     1
 LI BND       y[4,8]     0
 UI BND       y[4,8]     1
 LI BND       y[5,0]     0
 UI BND       y[5,0]     1
 LI BND       y[5,2]     0
 UI BND       y[5,2]     1
 LI BND       y[5,3]     0
 UI BND       y[5,3]     1
 LI BND       y[5,7]     0
 UI BND       y[5,7]     1
 LI BND       y[6,0]     0
 UI BND       y[6,0]     1
 LI BND       y[6,1]     0
 UI BND       y[6,1]     1
 LI BND       y[6,2]     0
 UI BND       y[6,2]     1
 LI BND       y[6,4]     0
 UI BND       y[6,4]     1
 LI BND       y[6,7]     0
 UI BND       y[6,7]     1
 LI BND       y[6,8]     0
 UI BND       y[6,8]     1
 LI BND       y[7,0]     0
 UI BND       y[7,0]     1
 LI BND       y[7,1]     0
 UI BND       y[7,1]     1
 LI BND       y[7,2]     0
 UI BND       y[7,2]     1
 LI BND       y[7,3]     0
 UI BND       y[7,3]     1
 LI BND       y[7,4]     0
 UI BND       y[7,4]     1
 LI BND       y[7,5]     0
 UI BND       y[7,5]     1
 LI BND       y[7,6]     0
 UI BND       y[7,6]     1
 LI BND       y[7,8]     0
 UI BND       y[7,8]     1
 LI BND       y[8,0]     0
 UI BND       y[8,0]     1
 LI BND       y[8,1]     0
 UI BND       y[8,1]     1
 LI BND       y[8,3]     0
 UI BND       y[8,3]     1
 LI BND       y[8,4]     0
 UI BND       y[8,4]     1
 LI BND       y[8,6]     0
 UI BND       y[8,6]     1
 LI BND       y[8,7]     0
 UI BND       y[8,7]     1
 LI BND       u[0,1]     0
 UI BND       u[0,1]     1
 LI BND       u[0,2]     0
 UI BND       u[0,2]     1
 LI BND       u[0,3]     0
 UI BND       u[0,3]     1
 LI BND       u[0,4]     0
 UI BND       u[0,4]     1
 LI BND       u[0,5]     0
 UI BND       u[0,5]     1
 LI BND       u[0,6]     0
 UI BND       u[0,6]     1
 LI BND       u[0,7]     0
 UI BND       u[0,7]     1
 LI BND       u[0,8]     0
 UI BND       u[0,8]     1
 LI BND       u[1,0]     0
 UI BND       u[1,0]     1
 LI BND       u[1,2]     0
 UI BND       u[1,2]     1
 LI BND       u[1,3]     0
 UI BND       u[1,3]     1
 LI BND       u[1,4]     0
 UI BND       u[1,4]     1
 LI BND       u[1,6]     0
 UI BND       u[1,6]     1
 LI BND       u[1,7]     0
 UI BND       u[1,7]     1
 LI BND       u[1,8]     0
 UI BND       u[1,8]     1
 LI BND       u[2,0]     0
 UI BND       u[2,0]     1
 LI BND       u[2,1]     0
 UI BND       u[2,1]     1
 LI BND       u[2,3]     0
 UI BND       u[2,3]     1
 LI BND       u[2,4]     0
 UI BND       u[2,4]     1
 LI BND       u[2,5]     0
 UI BND       u[2,5]     1
 LI BND       u[2,6]     0
 UI BND       u[2,6]     1
 LI BND       u[2,7]     0
 UI BND       u[2,7]     1
 LI BND       u[3,0]     0
 UI BND       u[3,0]     1
 LI BND       u[3,1]     0
 UI BND       u[3,1]     1
 LI BND       u[3,2]     0
 UI BND       u[3,2]     1
 LI BND       u[3,5]     0
 UI BND       u[3,5]     1
 LI BND       u[3,7]     0
 UI BND       u[3,7]     1
 LI BND       u[3,8]     0
 UI BND       u[3,8]     1
 LI BND       u[4,0]     0
 UI BND       u[4,0]     1
 LI BND       u[4,1]     0
 UI BND       u[4,1]     1
 LI BND       u[4,2]     0
 UI BND       u[4,2]     1
 LI BND       u[4,6]     0
 UI BND       u[4,6]     1
 LI BND       u[4,7]     0
 UI BND       u[4,7]     1
 LI BND       u[4,8]     0
 UI BND       u[4,8]     1
 LI BND       u[5,0]     0
 UI BND       u[5,0]     1
 LI BND       u[5,2]     0
 UI BND       u[5,2]     1
 LI BND       u[5,3]     0
 UI BND       u[5,3]     1
 LI BND       u[5,7]     0
 UI BND       u[5,7]     1
 LI BND       u[6,0]     0
 UI BND       u[6,0]     1
 LI BND       u[6,1]     0
 UI BND       u[6,1]     1
 LI BND       u[6,2]     0
 UI BND       u[6,2]     1
 LI BND       u[6,4]     0
 UI BND       u[6,4]     1
 LI BND       u[6,7]     0
 UI BND       u[6,7]     1
 LI BND       u[6,8]     0
 UI BND       u[6,8]     1
 LI BND       u[7,0]     0
 UI BND       u[7,0]     1
 LI BND       u[7,1]     0
 UI BND       u[7,1]     1
 LI BND       u[7,2]     0
 UI BND       u[7,2]     1
 LI BND       u[7,3]     0
 UI BND       u[7,3]     1
 LI BND       u[7,4]     0
 UI BND       u[7,4]     1
 LI BND       u[7,5]     0
 UI BND       u[7,5]     1
 LI BND       u[7,6]     0
 UI BND       u[7,6]     1
 LI BND       u[7,8]     0
 UI BND       u[7,8]     1
 LI BND       u[8,0]     0
 UI BND       u[8,0]     1
 LI BND       u[8,1]     0
 UI BND       u[8,1]     1
 LI BND       u[8,3]     0
 UI BND       u[8,3]     1
 LI BND       u[8,4]     0
 UI BND       u[8,4]     1
 LI BND       u[8,6]     0
 UI BND       u[8,6]     1
 LI BND       u[8,7]     0
 UI BND       u[8,7]     1
ENDATA
